outputs/case_252.model.txt
approved_by_authority = True
complies_company_law_16_1 = False
business_sanctions_executed = True
has_executive_violation_affecting_business = True
executive_sanction_executed = False
use_other_approved_uses = True
use_approved_securities_investment_trust_fund = False
use_bank_deposits = False
use_treasury_bills_or_commercial_papers = False
use_government_bonds = False
has_misleading = False
financial_report_truthful = True
includes_management_and_custody_fee_methods = True
falsehood_prohibited = True
certificate_signed_by_custodian = True
includes_transfer_restrictions_and_effects = True
includes_redemption_procedures_and_fees = True
includes_trustee_and_custodian_info = True
beneficiary_certificate_mandatory_items = True
executive_sanction_ordered = False
executive_violation_affecting_business = True
business_sanctions = True
has_fraud = False
includes_beneficiary_name = True
beneficiary_certificate_audit = True
financial_report_false_or_hidden = False
has_falsehood = False
no_other_non_business_use = True
no_purchase_non_operating_real_estate = True
beneficiary_certificate_issuance = True
includes_fund_name_and_units_and_dates = True
compensation_responsibility = False
certificate_format_compliant = True
includes_other_mandatory_items = True
includes_nav_calculation_and_announcement = True
includes_purchase_price_and_fees = True
fraud_prohibited = True
includes_beneficiary_units = True
no_loan_to_others = True
guarantee_and_pledge_prohibition = True
misleading_prohibited = True
penalty = False
certificate_audited = True
capital_use_compliance = True